100
1000
209
206
205
201
197
191
191
190
187
187
186
184
183
182
182
182
178
176
174
172
171
171
171
169
166
164
162
161
161
156
155
155
152
149
147
144
142
136
132
131
125
124
122
121
117
117
115
113
113
110
104
103
101
101
100
96
96
95
95
92
87
83
77
77
76
72
70
70
70
68
68
66
65
62
59
56
55
54
51
49
47
44
43
43
42
41
41
40
39
37
34
34
31
31
30
26
26
20
14
13
